p cnf 50 75
1 28 0
1 27 0
1 5 0
2 44 0
2 34 0
2 45 0
3 40 0
3 13 0
3 20 0
4 49 0
4 15 0
4 22 0
5 46 0
5 31 0
6 47 0
6 15 0
6 48 0
7 42 0
7 24 0
7 21 0
8 36 0
8 14 0
8 35 0
9 35 0
9 16 0
9 22 0
10 37 0
10 20 0
10 39 0
11 16 0
11 35 0
11 47 0
12 30 0
12 18 0
12 34 0
13 32 0
13 24 0
14 17 0
14 49 0
15 18 0
16 48 0
17 50 0
17 29 0
18 41 0
19 27 0
19 40 0
19 31 0
20 26 0
21 47 0
21 26 0
22 42 0
23 32 0
23 43 0
23 37 0
24 39 0
25 31 0
25 32 0
25 43 0
26 42 0
27 45 0
28 44 0
28 36 0
29 30 0
29 38 0
30 43 0
33 45 0
33 38 0
33 36 0
34 37 0
38 50 0
39 40 0
41 49 0
41 44 0
46 48 0
46 50 0
g -30